16  710142
1   5   1    18    32    48    67    
2   7   51    71    77    64    53    80    10    
3   5   2    19    33    49    68    
4   5   4    20    34    50    69    
5   6   76    6    43    44    58    30    
6   5   56    57    3    9    35    
7   5   5    21    36    52    70    
8   5   7    22    37    54    72    
9   5   8    23    38    55    73    
10   5   11    24    39    59    74    
11   5   12    25    40    60    75    
12   5   13    26    41    61    78    
13   5   14    27    42    62    79    
14   4   15    28    45    63    
15   4   16    29    46    65    
16   4   17    31    47    66    

